30
1 0 3
2 0 5
2 1 1
3 0 2
3 1 1
3 2 5
4 0 4
4 1 4
4 2 5
4 3 4
5 0 2
5 1 3
5 2 2
5 3 3
5 4 1
6 0 4
6 1 2
6 2 2
6 3 2
6 4 2
6 5 4
7 0 1
7 1 2
7 2 5
7 3 3
7 4 4
7 5 4
7 6 3
8 0 2
8 1 4
8 2 1
8 3 1
8 4 1
8 5 4
8 6 3
8 7 5
9 0 3
9 1 5
9 2 5
9 3 1
9 4 4
9 5 2
9 6 4
9 7 1
9 8 4
10 0 1
10 1 1
10 2 5
10 3 4
10 4 4
10 5 4
10 6 4
10 7 5
10 8 3
10 9 5
11 0 5
11 1 5
11 2 2
11 3 1
11 4 4
11 5 4
11 6 2
11 7 4
11 8 3
11 9 5
11 10 4
12 0 1
12 1 5
12 2 2
12 3 1
12 4 3
12 5 3
12 6 2
12 7 4
12 8 4
12 9 2
12 10 3
12 11 4
13 0 4
13 1 5
13 2 5
13 3 2
13 4 4
13 5 1
13 6 3
13 7 4
13 8 1
13 9 5
13 10 1
13 11 1
13 12 2
14 0 4
14 1 2
14 2 1
14 3 4
14 4 3
14 5 4
14 6 5
14 7 4
14 8 3
14 9 4
14 10 3
14 11 2
14 12 2
14 13 5
15 0 4
15 1 5
15 2 3
15 3 3
15 4 1
15 5 1
15 6 3
15 7 3
15 8 2
15 9 4
15 10 4
15 11 2
15 12 1
15 13 2
15 14 1
16 0 2
16 1 1
16 2 2
16 3 2
16 4 1
16 5 2
16 6 5
16 7 4
16 8 2
16 9 1
16 10 1
16 11 5
16 12 3
16 13 4
16 14 4
16 15 2
17 0 5
17 1 4
17 2 3
17 3 2
17 4 5
17 5 2
17 6 5
17 7 5
17 8 4
17 9 3
17 10 3
17 11 1
17 12 4
17 13 5
17 14 1
17 15 4
17 16 5
18 0 3
18 1 1
18 2 3
18 3 5
18 4 2
18 5 1
18 6 2
18 7 3
18 8 2
18 9 1
18 10 3
18 11 1
18 12 2
18 13 5
18 14 3
18 15 3
18 16 1
18 17 1
19 0 5
19 1 4
19 2 3
19 3 1
19 4 1
19 5 1
19 6 1
19 7 4
19 8 5
19 9 2
19 10 3
19 11 1
19 12 3
19 13 1
19 14 2
19 15 2
19 16 5
19 17 5
19 18 3
20 0 5
20 1 1
20 2 1
20 3 4
20 4 4
20 5 2
20 6 1
20 7 3
20 8 2
20 9 3
20 10 3
20 11 4
20 12 1
20 13 3
20 14 2
20 15 3
20 16 4
20 17 5
20 18 2
20 19 4
21 0 5
21 1 5
21 2 2
21 3 3
21 4 5
21 5 3
21 6 5
21 7 3
21 8 5
21 9 4
21 10 2
21 11 4
21 12 3
21 13 4
21 14 1
21 15 5
21 16 5
21 17 2
21 18 1
21 19 2
21 20 2
22 0 1
22 1 1
22 2 3
22 3 3
22 4 1
22 5 1
22 6 3
22 7 2
22 8 3
22 9 1
22 10 2
22 11 3
22 12 4
22 13 2
22 14 2
22 15 2
22 16 1
22 17 3
22 18 4
22 19 1
22 20 1
22 21 5
23 0 3
23 1 1
23 2 3
23 3 2
23 4 5
23 5 5
23 6 5
23 7 4
23 8 3
23 9 4
23 10 2
23 11 3
23 12 3
23 13 3
23 14 2
23 15 4
23 16 4
23 17 4
23 18 1
23 19 2
23 20 5
23 21 5
23 22 2
24 0 5
24 1 5
24 2 5
24 3 5
24 4 5
24 5 3
24 6 1
24 7 4
24 8 2
24 9 5
24 10 1
24 11 4
24 12 1
24 13 5
24 14 2
24 15 1
24 16 1
24 17 3
24 18 5
24 19 3
24 20 2
24 21 2
24 22 2
24 23 2
25 0 4
25 1 4
25 2 4
25 3 3
25 4 1
25 5 1
25 6 5
25 7 2
25 8 4
25 9 3
25 10 1
25 11 1
25 12 4
25 13 4
25 14 1
25 15 3
25 16 2
25 17 1
25 18 1
25 19 3
25 20 2
25 21 2
25 22 3
25 23 2
25 24 1
26 0 2
26 1 1
26 2 4
26 3 5
26 4 3
26 5 4
26 6 4
26 7 5
26 8 4
26 9 1
26 10 3
26 11 3
26 12 5
26 13 2
26 14 1
26 15 2
26 16 2
26 17 5
26 18 3
26 19 2
26 20 4
26 21 1
26 22 1
26 23 2
26 24 2
26 25 1
27 0 4
27 1 1
27 2 1
27 3 2
27 4 1
27 5 1
27 6 1
27 7 3
27 8 2
27 9 3
27 10 4
27 11 1
27 12 2
27 13 1
27 14 2
27 15 2
27 16 3
27 17 5
27 18 5
27 19 3
27 20 3
27 21 4
27 22 3
27 23 4
27 24 2
27 25 3
27 26 3
28 0 1
28 1 2
28 2 1
28 3 3
28 4 5
28 5 5
28 6 2
28 7 1
28 8 1
28 9 1
28 10 2
28 11 1
28 12 3
28 13 2
28 14 5
28 15 2
28 16 5
28 17 3
28 18 1
28 19 3
28 20 5
28 21 5
28 22 2
28 23 3
28 24 5
28 25 3
28 26 2
28 27 2
29 0 1
29 1 5
29 2 4
29 3 4
29 4 2
29 5 2
29 6 3
29 7 3
29 8 5
29 9 3
29 10 4
29 11 5
29 12 3
29 13 3
29 14 1
29 15 4
29 16 2
29 17 5
29 18 1
29 19 1
29 20 4
29 21 1
29 22 4
29 23 5
29 24 3
29 25 3
29 26 3
29 27 1
29 28 1
